13 





































































































55 66 23 9 53 35 61 
8 29 67 16 1 14 
20 0 10 56 74 33 
58 7 68 43 12 30 
37 26 22 25 27 31 19 
60 57 64 71 15 36 
45 50 49 11 72 65 
18 46 5 17 48 47 73 
39 76 70 75 52 32 

21 51 40 59 28 62 63 
69 24 3 2 42 41 
38 44 4 54 6 34 
